%Can remove root and simply redirect the successor of ten -> one with cost 0.

N = 11;

% array[1..N] of set of int: fd;
fd = [{2, 3, 4}, % 1
{1, 2, 3, 4}, % 2
{1, 2, 3, 5, 6}, % 3
{1, 2, 4, 5, 6, 7}, % 4
{3, 4, 5, 7}, % 5
{3, 4, 6, 8}, % 6
{4, 5, 7, 8, 9}, % 7
{6, 7, 8, 9, 10}, % 8
{7, 8, 9, 10}, % 9
{8, 9, 11}, %10
{1} % root
];


% array[1..N] of var int: fd;
%fd = [one, two, three, four, five, six, seven, eight, nine, ten, root];

maxTank = 10;
%array[1..N, 1..N] of int: dist;

dist = [|99, 10, 11,  6, 99, 99, 99, 99, 99, 99,  0,
     |10,  0,  5,  8, 99, 99, 99, 99, 99, 99, 99,
     |11,  5,  0, 99,  3,  5, 99, 99, 99, 99, 99,
     | 6,  8, 99,  0,  2,  6,  7, 99, 99, 99, 99,
     |99, 99,  3,  2,  0, 99, 12, 99, 99, 99, 99,
     |99, 99,  5,  6, 99,  0, 99, 14, 99, 99, 99,
     |99, 99, 99,  7, 12, 99,  0,  5,  3, 99, 99,
     |99, 99, 99, 99, 99, 14,  5,  0,  1,  9, 99,
     |99, 99, 99, 99, 99, 99,  3,  1,  0,  2, 99,
     |99, 99, 99, 99, 99, 99, 99,  9,  2,  0,  0,
     | 0, 99, 99, 99, 99, 99, 99, 99, 99,  0, 99|];

%array[1..N] of int: fuelPrice;
fuelPrice = [10, 10, 8, 12, 13, 9, 10, 11, 12, 8, 99];

